c uprop, v00.0, 
c reading from data/prog192.c.cnf
c done reading: 0.00334
p cnf 180 869
-85 -106 0
-85 -102 0
85 102 106 0
-79 102 106 0
-79 -102 -106 0
79 102 -106 0
79 -102 106 0
85 -97 0
-95 -97 0
-85 95 97 0
-85 -90 95 0
85 -90 -95 0
85 90 95 0
-85 90 -95 0
-86 97 0
-83 -86 0
83 86 -97 0
-81 83 -97 0
-81 -83 97 0
81 83 97 0
81 -83 -97 0
-80 86 0
-77 -80 0
77 80 -86 0
77 -86 -104 0
-77 86 -104 0
77 86 104 0
-77 -86 104 0
80 -108 0
-99 -108 0
-80 99 108 0
-80 99 -109 0
80 -99 -109 0
80 99 109 0
-80 -99 109 0
108 -110 0
-92 -110 0
92 -108 110 0
92 -108 -111 0
-92 108 -111 0
92 108 111 0
-92 -108 111 0
110 -112 0
-88 -112 0
88 -110 112 0
88 -110 -113 0
-88 110 -113 0
88 110 113 0
-88 -110 113 0
102 -114 0
106 -114 0
-102 -106 114 0
-102 -106 -115 0
102 106 -115 0
-102 106 115 0
102 -106 115 0
-95 -102 116 0
-95 -114 116 0
-102 -114 116 0
95 102 -116 0
95 114 -116 0
102 114 -116 0
95 -116 -117 0
102 -116 -117 0
114 -116 -117 0
-95 116 117 0
-102 116 117 0
-114 116 117 0
-95 -102 -114 117 0
95 102 114 -117 0
-83 -95 118 0
-83 -116 118 0
-95 -116 118 0
83 95 -118 0
83 116 -118 0
95 116 -118 0
83 -118 -119 0
95 -118 -119 0
116 -118 -119 0
-83 118 119 0
-95 118 119 0
-116 118 119 0
-83 -95 -116 119 0
83 95 116 -119 0
-77 -83 120 0
-77 -118 120 0
-83 -118 120 0
77 83 -120 0
77 118 -120 0
83 118 -120 0
-75 77 -120 0
-75 83 -120 0
-75 118 -120 0
75 -77 120 0
75 -83 120 0
75 -118 120 0
75 -77 -83 -118 0
-75 77 83 118 0
74 -77 -99 0
74 -99 -120 0
74 -77 -120 0
-74 77 99 0
-74 99 120 0
-74 77 120 0
-73 -74 99 0
-73 -74 77 0
-73 -74 120 0
73 74 -99 0
73 74 -77 0
73 74 -120 0
73 -77 -99 -120 0
-73 77 99 120 0
72 -92 -99 0
72 -74 -92 0
72 -74 -99 0
-72 92 99 0
-72 74 92 0
-72 74 99 0
-71 -72 92 0
-71 -72 99 0
-71 -72 74 0
71 72 -92 0
71 72 -99 0
71 72 -74 0
71 -74 -92 -99 0
-71 74 92 99 0
70 -88 -92 0
70 -72 -88 0
70 -72 -92 0
-70 88 92 0
-70 72 88 0
-70 72 92 0
-70 88 -105 0
-70 92 -105 0
-70 72 -105 0
70 -88 105 0
70 -92 105 0
70 -72 105 0
-72 -88 -92 105 0
72 88 92 -105 0
88 -101 0
70 -101 0
-70 -88 101 0
-70 -88 -94 0
70 88 -94 0
70 -88 94 0
-70 88 94 0
-82 119 0
-82 106 0
82 -106 -119 0
-76 -106 -119 0
-76 106 119 0
76 106 -119 0
76 -106 119 0
-75 98 -102 0
-75 -82 98 0
-82 98 -102 0
75 -98 102 0
75 82 -98 0
82 -98 102 0
75 -91 -98 0
-91 -98 102 0
82 -91 -98 0
-75 91 98 0
91 98 -102 0
-82 91 98 0
-75 -82 91 -102 0
75 82 -91 102 0
-73 87 -95 0
-73 87 -98 0
87 -95 -98 0
73 -87 95 0
73 -87 98 0
-87 95 98 0
-69 73 -87 0
-69 -87 95 0
-69 -87 98 0
69 -73 87 0
69 87 -95 0
69 87 -98 0
69 -73 -95 -98 0
-69 73 95 98 0
68 -71 -83 0
68 -71 -87 0
68 -83 -87 0
-68 71 83 0
-68 71 87 0
-68 83 87 0
-67 -68 71 0
-67 -68 83 0
-67 -68 87 0
67 68 -71 0
67 68 -83 0
67 68 -87 0
67 -71 -83 -87 0
-67 71 83 87 0
66 -77 -105 0
66 -68 -105 0
66 -68 -77 0
-66 77 105 0
-66 68 105 0
-66 68 77 0
-65 -66 105 0
-65 -66 77 0
-65 -66 68 0
65 66 -105 0
65 66 -77 0
65 66 -68 0
65 -68 -77 -105 0
-65 68 77 105 0
64 -94 -99 0
64 -66 -94 0
64 -66 -99 0
-64 94 99 0
-64 66 94 0
-64 66 99 0
-63 -64 94 0
-63 -64 99 0
-63 -64 66 0
63 64 -94 0
63 64 -99 0
63 64 -66 0
63 -66 -94 -99 0
-63 66 94 99 0
62 -92 -101 0
62 -64 -101 0
62 -64 -92 0
-62 92 101 0
-62 64 101 0
-62 64 92 0
-61 -62 101 0
-61 -62 92 0
-61 -62 64 0
61 62 -101 0
61 62 -92 0
61 62 -64 0
61 -64 -92 -101 0
-61 64 92 101 0
-60 88 0
-60 62 0
60 -62 -88 0
-59 -62 -88 0
-59 62 88 0
59 62 -88 0
59 -62 88 0
-58 91 0
-58 106 0
58 -91 -106 0
-57 -91 -106 0
-57 91 106 0
57 -91 106 0
57 91 -106 0
56 -69 -102 0
56 -58 -69 0
56 -58 -102 0
-56 69 102 0
-56 58 69 0
-56 58 102 0
-55 -56 69 0
-55 -56 102 0
-55 -56 58 0
55 56 -69 0
55 56 -102 0
55 56 -58 0
55 -58 -69 -102 0
-55 58 69 102 0
54 -67 -95 0
54 -56 -67 0
54 -56 -95 0
-54 67 95 0
-54 56 67 0
-54 56 95 0
-54 67 -121 0
-54 95 -121 0
-54 56 -121 0
54 -67 121 0
54 -95 121 0
54 -56 121 0
-56 -67 -95 121 0
56 67 95 -121 0
-65 -83 122 0
-54 -65 122 0
-54 -83 122 0
65 83 -122 0
54 65 -122 0
54 83 -122 0
65 -122 -123 0
83 -122 -123 0
54 -122 -123 0
-65 122 123 0
-83 122 123 0
-54 122 123 0
-54 -65 -83 123 0
54 65 83 -123 0
-63 -77 124 0
-63 -122 124 0
-77 -122 124 0
63 77 -124 0
63 122 -124 0
77 122 -124 0
63 -124 -125 0
77 -124 -125 0
122 -124 -125 0
-63 124 125 0
-77 124 125 0
-122 124 125 0
-63 -77 -122 125 0
63 77 122 -125 0
-61 -99 126 0
-61 -124 126 0
-99 -124 126 0
61 99 -126 0
61 124 -126 0
99 124 -126 0
61 -126 -127 0
99 -126 -127 0
124 -126 -127 0
-61 126 127 0
-99 126 127 0
-124 126 127 0
-61 -99 -124 127 0
61 99 124 -127 0
-59 -92 128 0
-59 -126 128 0
-92 -126 128 0
59 92 -128 0
59 126 -128 0
92 126 -128 0
59 -128 -129 0
92 -128 -129 0
126 -128 -129 0
-59 128 129 0
-92 128 129 0
-126 128 129 0
-59 -92 -126 129 0
59 92 126 -129 0
-60 -88 130 0
-60 -128 130 0
-88 -128 130 0
60 88 -130 0
60 128 -130 0
88 128 -130 0
60 -130 -131 0
88 -130 -131 0
128 -130 -131 0
-60 130 131 0
-88 130 131 0
-128 130 131 0
-60 -88 -128 131 0
60 88 128 -131 0
-106 -132 0
-115 -132 0
106 115 132 0
106 115 -133 0
-106 -115 -133 0
-106 115 133 0
106 -115 133 0
132 -134 0
-117 -134 0
117 -132 134 0
117 -132 -135 0
-117 132 -135 0
117 132 135 0
-117 -132 135 0
134 -136 0
-76 -136 0
76 -134 136 0
76 -134 -137 0
-76 134 -137 0
76 134 137 0
-76 -134 137 0
136 -138 0
-57 -138 0
57 -136 138 0
57 -136 -139 0
-57 136 -139 0
57 136 139 0
-57 -136 139 0
138 -140 0
-55 -140 0
55 -138 140 0
55 -138 -141 0
-55 138 -141 0
55 138 141 0
-55 -138 141 0
140 -142 0
-121 -142 0
121 -140 142 0
121 -140 -143 0
-121 140 -143 0
121 140 143 0
-121 -140 143 0
142 -144 0
-123 -144 0
123 -142 144 0
123 -142 -145 0
-123 142 -145 0
123 142 145 0
-123 -142 145 0
144 -146 0
-125 -146 0
125 -144 146 0
125 -144 -147 0
-125 144 -147 0
125 144 147 0
-125 -144 147 0
146 -148 0
-127 -148 0
127 -146 148 0
127 -146 -149 0
-127 146 -149 0
127 146 149 0
-127 -146 149 0
148 -150 0
-129 -150 0
129 -148 150 0
129 -148 -151 0
-129 148 -151 0
129 148 151 0
-129 -148 151 0
150 -152 0
-131 -152 0
131 -150 152 0
131 -150 -153 0
-131 150 -153 0
131 150 153 0
-131 -150 153 0
152 -154 0
-130 -154 0
130 -152 154 0
130 -152 -155 0
-130 152 -155 0
130 152 155 0
-130 -152 155 0
-156 -158 0
-158 -159 0
156 158 159 0
156 159 -161 0
-156 -159 -161 0
-156 159 161 0
156 -159 161 0
158 -162 0
-162 -163 0
-158 162 163 0
-158 163 -165 0
158 -163 -165 0
158 163 165 0
-158 -163 165 0
162 -166 0
-166 -167 0
-162 166 167 0
-162 167 -169 0
162 -167 -169 0
162 167 169 0
-162 -167 169 0
166 -170 0
-170 -171 0
-166 170 171 0
-166 171 -173 0
166 -171 -173 0
166 171 173 0
-166 -171 173 0
170 -174 0
-174 -175 0
-170 174 175 0
-107 -170 175 0
-107 170 -175 0
107 170 175 0
107 -170 -175 0
-103 174 0
-103 -177 0
103 -174 177 0
-96 -174 177 0
-96 174 -177 0
96 174 177 0
96 -174 -177 0
-84 103 0
-84 -179 0
84 -103 179 0
-78 -103 179 0
-78 103 -179 0
78 103 179 0
78 -103 -179 0
-100 159 0
-100 156 0
100 -156 -159 0
-93 -156 -159 0
-93 156 159 0
93 156 -159 0
93 -156 159 0
89 -159 -163 0
89 -100 -163 0
89 -100 -159 0
-89 159 163 0
-89 100 163 0
-89 100 159 0
-89 -157 163 0
-89 -157 159 0
-89 100 -157 0
89 157 -163 0
89 157 -159 0
89 -100 157 0
-100 157 -159 -163 0
100 -157 159 163 0
160 -163 -167 0
-89 160 -167 0
-89 160 -163 0
-160 163 167 0
89 -160 167 0
89 -160 163 0
-160 -164 167 0
-160 163 -164 0
89 -160 -164 0
160 164 -167 0
160 -163 164 0
-89 160 164 0
-89 -163 164 -167 0
89 163 -164 167 0
-167 168 -171 0
-160 168 -171 0
-160 -167 168 0
167 -168 171 0
160 -168 171 0
160 167 -168 0
-168 171 -172 0
167 -168 -172 0
160 -168 -172 0
168 -171 172 0
-167 168 172 0
-160 168 172 0
-160 -167 -171 172 0
160 167 171 -172 0
-171 -175 176 0
-168 -175 176 0
-168 -171 176 0
171 175 -176 0
168 175 -176 0
168 171 -176 0
175 -176 -178 0
171 -176 -178 0
168 -176 -178 0
-175 176 178 0
-171 176 178 0
-168 176 178 0
-168 -171 -175 178 0
168 171 175 -178 0
-175 -177 180 0
-176 -177 180 0
-175 -176 180 0
175 177 -180 0
176 177 -180 0
175 176 -180 0
-53 177 -180 0
-53 175 -180 0
-53 176 -180 0
53 -177 180 0
53 -175 180 0
53 -176 180 0
53 -175 -176 -177 0
-53 175 176 177 0
52 -177 -179 0
52 -179 -180 0
52 -177 -180 0
-52 177 179 0
-52 179 180 0
-52 177 180 0
-51 -52 179 0
-51 -52 177 0
-51 -52 180 0
51 52 -179 0
51 52 -177 0
51 52 -180 0
51 -177 -179 -180 0
-51 177 179 180 0
-50 179 0
-50 52 0
50 -52 -179 0
-49 -52 -179 0
-49 52 179 0
49 52 -179 0
49 -52 179 0
-48 157 0
-48 156 0
48 -156 -157 0
-47 -156 -157 0
-47 156 157 0
47 156 -157 0
47 -156 157 0
46 -159 -164 0
46 -48 -164 0
46 -48 -159 0
-46 159 164 0
-46 48 164 0
-46 48 159 0
-45 -46 164 0
-45 -46 159 0
-45 -46 48 0
45 46 -164 0
45 46 -159 0
45 46 -48 0
45 -48 -159 -164 0
-45 48 159 164 0
44 -163 -172 0
44 -46 -172 0
44 -46 -163 0
-44 163 172 0
-44 46 172 0
-44 46 163 0
-43 -44 172 0
-43 -44 163 0
-43 -44 46 0
43 44 -172 0
43 44 -163 0
43 44 -46 0
43 -46 -163 -172 0
-43 46 163 172 0
42 -167 -178 0
42 -44 -178 0
42 -44 -167 0
-42 167 178 0
-42 44 178 0
-42 44 167 0
-41 -42 178 0
-41 -42 167 0
-41 -42 44 0
41 42 -178 0
41 42 -167 0
41 42 -44 0
41 -44 -167 -178 0
-41 44 167 178 0
40 -53 -171 0
40 -42 -53 0
40 -42 -171 0
-40 53 171 0
-40 42 53 0
-40 42 171 0
-39 -40 53 0
-39 -40 171 0
-39 -40 42 0
39 40 -53 0
39 40 -171 0
39 40 -42 0
39 -42 -53 -171 0
-39 42 53 171 0
38 -51 -175 0
38 -40 -51 0
38 -40 -175 0
-38 51 175 0
-38 40 51 0
-38 40 175 0
-37 -38 51 0
-37 -38 175 0
-37 -38 40 0
37 38 -51 0
37 38 -175 0
37 38 -40 0
37 -40 -51 -175 0
-37 40 51 175 0
36 -49 -177 0
36 -38 -49 0
36 -38 -177 0
-36 49 177 0
-36 38 49 0
-36 38 177 0
-35 -36 49 0
-35 -36 177 0
-35 -36 38 0
35 36 -49 0
35 36 -177 0
35 36 -38 0
35 -38 -49 -177 0
-35 38 49 177 0
34 -50 -179 0
34 -36 -50 0
34 -36 -179 0
-34 50 179 0
-34 36 50 0
-34 36 179 0
-33 -34 50 0
-33 -34 179 0
-33 -34 36 0
33 34 -50 0
33 34 -179 0
33 34 -36 0
33 -36 -50 -179 0
-33 36 50 179 0
-32 -156 0
-32 -93 0
32 93 156 0
-31 93 156 0
-31 -93 -156 0
31 93 -156 0
31 -93 156 0
-30 32 0
-30 -47 0
30 -32 47 0
-29 -32 47 0
-29 32 -47 0
29 32 47 0
29 -32 -47 0
-28 30 0
-28 -45 0
28 -30 45 0
-27 -30 45 0
-27 30 -45 0
27 30 45 0
27 -30 -45 0
-26 28 0
-26 -43 0
26 -28 43 0
-25 -28 43 0
-25 28 -43 0
25 28 43 0
25 -28 -43 0
-24 26 0
-24 -41 0
24 -26 41 0
-23 -26 41 0
-23 26 -41 0
23 26 41 0
23 -26 -41 0
-22 24 0
-22 -39 0
22 -24 39 0
-21 -24 39 0
-21 24 -39 0
21 24 39 0
21 -24 -39 0
-20 22 0
-20 -37 0
20 -22 37 0
-19 -22 37 0
-19 22 -37 0
19 22 37 0
19 -22 -37 0
-18 20 0
-18 -35 0
18 -20 35 0
-17 -20 35 0
-17 20 -35 0
17 20 35 0
17 -20 -35 0
-16 18 0
-16 -33 0
16 -18 33 0
-15 -18 33 0
-15 18 -33 0
15 18 33 0
15 -18 -33 0
-14 16 0
-14 -34 0
14 -16 34 0
-13 -16 34 0
-13 16 -34 0
13 16 34 0
13 -16 -34 0
-12 106 0
-12 156 0
12 -106 -156 0
-106 156 0
106 -156 0
11 -93 -115 0
11 -12 -115 0
11 -12 -93 0
-11 93 115 0
-11 12 115 0
-11 12 93 0
-11 115 0
-11 93 0
-11 12 0
12 93 115 0
10 -47 -117 0
10 -11 -117 0
10 -11 -47 0
-10 47 117 0
-10 11 117 0
-10 11 47 0
10 -117 0
10 -47 0
10 -11 0
-11 -47 -117 0
9 -45 -76 0
9 -10 -76 0
9 -10 -45 0
-9 45 76 0
-9 10 76 0
-9 10 45 0
-9 76 0
-9 45 0
-9 10 0
10 45 76 0
8 -43 -57 0
8 -9 -57 0
8 -9 -43 0
-8 43 57 0
-8 9 57 0
-8 9 43 0
8 -57 0
8 -43 0
8 -9 0
-9 -43 -57 0
7 -41 -55 0
7 -8 -55 0
7 -8 -41 0
-7 41 55 0
-7 8 55 0
-7 8 41 0
-7 55 0
-7 41 0
-7 8 0
8 41 55 0
6 -39 -121 0
6 -7 -121 0
6 -7 -39 0
-6 39 121 0
-6 7 121 0
-6 7 39 0
6 -121 0
6 -39 0
6 -7 0
-7 -39 -121 0
5 -37 -123 0
5 -6 -123 0
5 -6 -37 0
-5 37 123 0
-5 6 123 0
-5 6 37 0
5 -123 0
5 -37 0
5 -6 0
-6 -37 -123 0
4 -35 -125 0
4 -5 -125 0
4 -5 -35 0
-4 35 125 0
-4 5 125 0
-4 5 35 0
4 -125 0
4 -35 0
4 -5 0
-5 -35 -125 0
3 -33 -127 0
3 -4 -127 0
3 -4 -33 0
-3 33 127 0
-3 4 127 0
-3 4 33 0
3 -127 0
3 -33 0
3 -4 0
-4 -33 -127 0
2 -34 -129 0
2 -3 -129 0
2 -3 -34 0
-2 34 129 0
-2 3 129 0
-2 3 34 0
2 -129 0
2 -34 0
2 -3 0
-3 -34 -129 0
-1 131 0
-1 2 0
1 -2 -131 0
2 -131 0
-2 131 0
-1 -130 0
1 -130 0
-1 130 0
